183 300 89 87 69 76 62 77 70 80 100 80 80 93 100 96 90 64 58 87 67 76 53 76 85 96 78 90 76 66 84 93 84 97 80 78 72 66 54 66 97 53 70 50 96 69 96 60 57 78 97 74 78 74 50 62 69 52 51 96 68 59 62 76 55 92 53 52 83 83 68 79 60 63 53 56 56 99 66 64 50 87 88 78 85 62 64 54 89 90 74 56 99 86 57 53 52 85 55 85 67 99 88 78 61 91 58 67 63 99 55 88 85 94 90 69 80 53 98 69 93 96 100 65 56 56 68 58 66 74 67 57 97 79 85 57 94 67 99 81 65 54 68 100 72 57 94 51 85 65 95 51 86 95 66 92 75 84 74 91 82 65 99 78 94 57 59 87 75 58 92 90 87 59 64 58 91 82 84 75 71 79 50 56 73 